13
9 2 3 5 7 9 3 1 2 5 6 7 12
2 9 6 1 4 4 6 2 7 9 12 13 14
3 5 9 2 7 5 4 2 7 8 1 9 4
2 6 7 9 6 4 6 7 8 3 4 2 23
6 4 3 1 9 4 6 3 6 7 45 23 12
4 4 3 1 9 4 6 3 6 7 45 23 12
5 2 6 7 9 6 4 6 7 8 3 4 2
6 9 2 3 5 7 9 3 1 2 5 6 7
7 5 9 2 7 5 4 2 7 8 1 9 4
8 2 9 6 1 4 4 6 2 7 9 12 13
9 6 7 9 6 4 6 7 8 3 4 2 23
1 2 3 5 7 9 3 1 2 5 6 7 8
2 5 9 2 7 5 4 2 7 8 1 9 4
